54
75
60	4
59	3
58	7
57	4
56	7
55	3
54	8
53	5
52	4
51	6
50	6
49	6
48	4
47	6
46	4
45	5
44	2
43	4
42	7
41	8
40	6
39	5
38	3
37	9
36	5
35	11
34	7
33	4
32	2
31	7
30	3
29	5
28	3
27	4
26	7
25	7
24	5
23	9
22	6
21	8
20	8
19	4
18	9
17	5
16	7
15	7
14	3
13	6
12	4
11	1
10	5
9	9
8	6
7	7
